
Gurobi 9.5.2 (linux64, gurobi_cl) logging started Wed Jan 11 09:45:51 2023

Set parameter Username
Set parameter LogFile to value "gurobi.log"
Academic license - for non-commercial use only - expires 2023-12-16
Using license file /home/kota/gurobi.lic
